31405
271,283,307,358,367,371,481,525,576,579,675,676,694,810,885,986,1267,1274,1603,1660,1682,1745,1817,1834,1932,2009,2037,2104,2140,2239,2397,2458,2522,2531,2683,2708,2722,2767,2889,2914,2983,3060,3064,3086,3137,3257,3320,3392,3575,3590,3592,3651,3683,3858,3986,4077,4094,4264,4352,4372,4514,4543,4607,4855,4901,4947
